c FILE: i080-315

c SOURCE: From steinlib

c DESCRIPTION: Steinlib instance with 80 nodes and 350 edges.

p edge 80 350
e 1 2
e 1 15
e 1 25
e 1 28
e 1 36
e 1 38
e 1 41
e 1 46
e 1 55
e 1 56
e 1 59
e 1 67
e 1 70
e 2 4
e 2 13
e 2 23
e 2 42
e 2 59
e 2 70
e 2 71
e 2 77
e 3 27
e 3 28
e 3 31
e 3 46
e 3 49
e 3 58
e 3 76
e 4 12
e 4 14
e 4 15
e 4 22
e 4 33
e 4 51
e 4 60
e 4 62
e 5 12
e 5 13
e 5 19
e 5 33
e 5 39
e 5 46
e 5 52
e 6 7
e 6 11
e 6 16
e 6 26
e 6 28
e 6 32
e 6 34
e 6 35
e 6 38
e 6 55
e 6 64
e 6 65
e 6 72
e 6 79
e 7 8
e 7 37
e 7 59
e 7 65
e 8 13
e 8 22
e 8 28
e 8 45
e 8 47
e 8 51
e 8 75
e 9 12
e 9 14
e 9 38
e 9 40
e 9 43
e 9 47
e 9 60
e 9 63
e 9 64
e 10 13
e 10 41
e 10 51
e 10 57
e 10 76
e 11 22
e 11 36
e 11 38
e 11 46
e 11 47
e 11 55
e 11 59
e 11 64
e 11 67
e 11 74
e 12 15
e 12 26
e 12 51
e 12 53
e 12 59
e 12 63
e 13 32
e 13 40
e 13 47
e 13 53
e 13 56
e 13 58
e 13 65
e 14 22
e 14 24
e 14 34
e 14 43
e 14 44
e 14 52
e 14 68
e 15 17
e 15 19
e 15 23
e 15 27
e 15 55
e 15 61
e 15 76
e 16 32
e 16 34
e 16 51
e 16 67
e 16 77
e 16 78
e 17 30
e 17 32
e 17 34
e 17 35
e 17 49
e 17 71
e 17 77
e 18 21
e 18 40
e 18 47
e 18 51
e 18 74
e 19 22
e 19 24
e 19 32
e 19 41
e 19 67
e 20 30
e 20 31
e 20 32
e 20 58
e 20 65
e 20 76
e 20 77
e 20 78
e 21 34
e 21 68
e 21 72
e 21 73
e 21 74
e 22 32
e 22 37
e 22 50
e 22 51
e 22 72
e 22 79
e 23 31
e 23 54
e 23 67
e 24 25
e 24 28
e 24 30
e 24 39
e 24 48
e 24 50
e 24 62
e 24 69
e 25 35
e 25 39
e 25 40
e 25 54
e 25 60
e 25 64
e 25 65
e 25 68
e 26 30
e 26 32
e 26 59
e 26 60
e 26 70
e 26 76
e 27 29
e 27 30
e 27 42
e 27 47
e 27 68
e 27 71
e 27 80
e 28 31
e 28 36
e 28 39
e 28 56
e 28 60
e 28 64
e 28 68
e 28 69
e 28 78
e 29 32
e 29 36
e 29 67
e 29 71
e 29 75
e 29 77
e 30 31
e 30 34
e 30 45
e 30 46
e 30 64
e 31 52
e 31 56
e 31 74
e 32 42
e 32 51
e 32 52
e 32 56
e 32 57
e 32 59
e 32 65
e 32 66
e 32 67
e 32 77
e 33 47
e 33 48
e 33 51
e 33 73
e 33 76
e 34 38
e 34 49
e 34 50
e 34 57
e 35 42
e 35 44
e 35 55
e 35 63
e 35 78
e 36 41
e 36 42
e 36 43
e 36 44
e 36 51
e 36 75
e 36 78
e 37 39
e 37 40
e 37 50
e 37 52
e 37 54
e 37 59
e 37 70
e 37 76
e 38 41
e 38 51
e 38 54
e 38 64
e 38 76
e 39 54
e 39 62
e 39 76
e 40 53
e 40 71
e 40 74
e 41 49
e 41 56
e 41 64
e 41 79
e 42 60
e 42 70
e 42 80
e 43 54
e 43 70
e 43 77
e 44 46
e 44 53
e 44 56
e 44 66
e 44 78
e 45 48
e 45 59
e 45 61
e 45 62
e 46 66
e 47 57
e 47 60
e 47 75
e 48 66
e 49 53
e 50 56
e 50 61
e 52 67
e 52 72
e 52 75
e 52 76
e 53 55
e 53 64
e 53 65
e 53 71
e 54 56
e 54 71
e 54 73
e 55 63
e 55 66
e 55 69
e 55 71
e 55 74
e 56 60
e 56 79
e 57 65
e 57 68
e 57 74
e 57 77
e 58 62
e 58 68
e 58 80
e 59 69
e 59 70
e 59 76
e 60 75
e 60 78
e 61 64
e 61 78
e 61 79
e 63 66
e 63 71
e 64 72
e 64 80
e 65 70
e 65 78
e 66 75
e 67 70
e 67 71
e 67 72
e 67 74
e 67 75
e 68 69
e 68 79
e 68 80
e 69 77
e 70 73
e 70 76
e 70 80
e 71 74
e 72 78
e 75 80
e 76 79
e 78 80
